60

 0  10  20  30  30  50  50  60  60  14  41  41  51  61  61  20  22  22  22  22  28  28  28  36  45  45  45  45  63  30  32  36  42  50  50  67  67  67  40  45  50  64  72  50  51  51  58  58  58  71  78  78  60  63  63  72  72  78  78  85  
10   0  10  20  20  40  40  50  50  10  32  32  41  51  51  22  20  20  20  20  22  22  22  28  36  36  36  36  54  32  30  32  36  42  42  58  58  58  41  41  45  57  64  51  50  50  54  54  54  64  71  71  61  61  61  67  67  72  72  78  
20  10   0  10  10  30  30  40  40  14  22  22  32  41  41  28  22  22  22  22  20  20  20  22  28  28  28  28  45  36  32  30  32  36  36  50  50  50  45  40  41  50  57  54  51  51  51  51  51  58  64  64  63  60  60  63  63  67  67  72  
30  20  10   0   0  20  20  30  30  22  14  14  22  32  32  36  28  28  28  28  22  22  22  20  22  22  22  22  36  42  36  32  30  32  32  42  42  42  50  41  40  45  50  58  54  54  50  50  50  54  58  58  67  61  61  61  61  63  63  67  
30  20  10   0   0  20  20  30  30  22  14  14  22  32  32  36  28  28  28  28  22  22  22  20  22  22  22  22  36  42  36  32  30  32  32  42  42  42  50  41  40  45  50  58  54  54  50  50  50  54  58  58  67  61  61  61  61  63  63  67  
50  40  30  20  20   0   0  10  10  41  14  14  10  14  14  54  45  45  45  45  36  36  36  28  22  22  22  22  22  58  50  42  36  32  32  32  32  32  64  50  45  40  41  71  64  64  54  54  54  50  51  51  78  67  67  61  61  60  60  61  
50  40  30  20  20   0   0  10  10  41  14  14  10  14  14  54  45  45  45  45  36  36  36  28  22  22  22  22  22  58  50  42  36  32  32  32  32  32  64  50  45  40  41  71  64  64  54  54  54  50  51  51  78  67  67  61  61  60  60  61  
60  50  40  30  30  10  10   0   0  51  22  22  14  10  10  63  54  54  54  54  45  45  45  36  28  28  28  28  20  67  58  50  42  36  36  30  30  30  72  57  50  41  40  78  71  71  58  58  58  51  50  50  85  72  72  63  63  61  61  60  
60  50  40  30  30  10  10   0   0  51  22  22  14  10  10  63  54  54  54  54  45  45  45  36  28  28  28  28  20  67  58  50  42  36  36  30  30  30  72  57  50  41  40  78  71  71  58  58  58  51  50  50  85  72  72  63  63  61  61  60  
14  10  14  22  22  41  41  51  51   0  30  30  40  50  50  14  10  10  10  10  14  14  14  22  32  32  32  32  51  22  20  22  28  36  36  54  54  54  32  32  36  50  58  41  40  40  45  45  45  57  64  64  51  51  51  58  58  64  64  71  
41  32  22  14  14  14  14  22  22  30   0   0  10  20  20  41  32  32  32  32  22  22  22  14  10  10  10  10  22  45  36  28  22  20  20  28  28  28  50  36  32  32  36  57  50  50  41  41  41  41  45  45  64  54  54  50  50  51  51  54  
41  32  22  14  14  14  14  22  22  30   0   0  10  20  20  41  32  32  32  32  22  22  22  14  10  10  10  10  22  45  36  28  22  20  20  28  28  28  50  36  32  32  36  57  50  50  41  41  41  41  45  45  64  54  54  50  50  51  51  54  
51  41  32  22  22  10  10  14  14  40  10  10   0  10  10  51  41  41  41  41  32  32  32  22  14  14  14  14  14  54  45  36  28  22  22  22  22  22  58  42  36  30  32  64  57  57  45  45  45  40  41  41  71  58  58  51  51  50  50  51  
61  51  41  32  32  14  14  10  10  50  20  20  10   0   0  61  51  51  51  51  41  41  41  32  22  22  22  22  10  63  54  45  36  28  28  20  20  20  67  50  42  32  30  72  64  64  50  50  50  41  40  40  78  64  64  54  54  51  51  50  
61  51  41  32  32  14  14  10  10  50  20  20  10   0   0  61  51  51  51  51  41  41  41  32  22  22  22  22  10  63  54  45  36  28  28  20  20  20  67  50  42  32  30  72  64  64  50  50  50  41  40  40  78  64  64  54  54  51  51  50  
20  22  28  36  36  54  54  63  63  14  41  41  51  61  61   0  10  10  10  10  20  20  20  30  40  40  40  40  60  10  14  22  32  41  41  61  61  61  20  28  36  54  63  30  32  32  42  42  42  58  67  67  40  45  45  57  57  64  64  72  
22  20  22  28  28  45  45  54  54  10  32  32  41  51  51  10   0   0   0   0  10  10  10  20  30  30  30  30  50  14  10  14  22  32  32  51  51  51  22  22  28  45  54  32  30  30  36  36  36  50  58  58  41  41  41  50  50  57  57  64  
22  20  22  28  28  45  45  54  54  10  32  32  41  51  51  10   0   0   0   0  10  10  10  20  30  30  30  30  50  14  10  14  22  32  32  51  51  51  22  22  28  45  54  32  30  30  36  36  36  50  58  58  41  41  41  50  50  57  57  64  
22  20  22  28  28  45  45  54  54  10  32  32  41  51  51  10   0   0   0   0  10  10  10  20  30  30  30  30  50  14  10  14  22  32  32  51  51  51  22  22  28  45  54  32  30  30  36  36  36  50  58  58  41  41  41  50  50  57  57  64  
22  20  22  28  28  45  45  54  54  10  32  32  41  51  51  10   0   0   0   0  10  10  10  20  30  30  30  30  50  14  10  14  22  32  32  51  51  51  22  22  28  45  54  32  30  30  36  36  36  50  58  58  41  41  41  50  50  57  57  64  
28  22  20  22  22  36  36  45  45  14  22  22  32  41  41  20  10  10  10  10   0   0   0  10  20  20  20  20  40  22  14  10  14  22  22  41  41  41  28  20  22  36  45  36  32  32  32  32  32  42  50  50  45  40  40  45  45  50  50  57  
28  22  20  22  22  36  36  45  45  14  22  22  32  41  41  20  10  10  10  10   0   0   0  10  20  20  20  20  40  22  14  10  14  22  22  41  41  41  28  20  22  36  45  36  32  32  32  32  32  42  50  50  45  40  40  45  45  50  50  57  
28  22  20  22  22  36  36  45  45  14  22  22  32  41  41  20  10  10  10  10   0   0   0  10  20  20  20  20  40  22  14  10  14  22  22  41  41  41  28  20  22  36  45  36  32  32  32  32  32  42  50  50  45  40  40  45  45  50  50  57  
36  28  22  20  20  28  28  36  36  22  14  14  22  32  32  30  20  20  20  20  10  10  10   0  10  10  10  10  30  32  22  14  10  14  14  32  32  32  36  22  20  28  36  42  36  36  30  30  30  36  42  42  50  41  41  41  41  45  45  50  
45  36  28  22  22  22  22  28  28  32  10  10  14  22  22  40  30  30  30  30  20  20  20  10   0   0   0   0  20  41  32  22  14  10  10  22  22  22  45  28  22  22  28  50  42  42  32  32  32  32  36  36  57  45  45  40  40  41  41  45  
45  36  28  22  22  22  22  28  28  32  10  10  14  22  22  40  30  30  30  30  20  20  20  10   0   0   0   0  20  41  32  22  14  10  10  22  22  22  45  28  22  22  28  50  42  42  32  32  32  32  36  36  57  45  45  40  40  41  41  45  
45  36  28  22  22  22  22  28  28  32  10  10  14  22  22  40  30  30  30  30  20  20  20  10   0   0   0   0  20  41  32  22  14  10  10  22  22  22  45  28  22  22  28  50  42  42  32  32  32  32  36  36  57  45  45  40  40  41  41  45  
45  36  28  22  22  22  22  28  28  32  10  10  14  22  22  40  30  30  30  30  20  20  20  10   0   0   0   0  20  41  32  22  14  10  10  22  22  22  45  28  22  22  28  50  42  42  32  32  32  32  36  36  57  45  45  40  40  41  41  45  
63  54  45  36  36  22  22  20  20  51  22  22  14  10  10  60  50  50  50  50  40  40  40  30  20  20  20  20   0  61  51  41  32  22  22  10  10  10  63  45  36  22  20  67  58  58  42  42  42  32  30  30  72  57  57  45  45  41  41  40  
30  32  36  42  42  58  58  67  67  22  45  45  54  63  63  10  14  14  14  14  22  22  22  32  41  41  41  41  61   0  10  20  30  40  40  60  60  60  10  22  32  51  61  20  22  22  36  36  36  54  63  63  30  36  36  50  50  58  58  67  
32  30  32  36  36  50  50  58  58  20  36  36  45  54  54  14  10  10  10  10  14  14  14  22  32  32  32  32  51  10   0  10  20  30  30  50  50  50  14  14  22  41  51  22  20  20  28  28  28  45  54  54  32  32  32  42  42  50  50  58  
36  32  30  32  32  42  42  50  50  22  28  28  36  45  45  22  14  14  14  14  10  10  10  14  22  22  22  22  41  20  10   0  10  20  20  40  40  40  22  10  14  32  41  28  22  22  22  22  22  36  45  45  36  30  30  36  36  42  42  50  
42  36  32  30  30  36  36  42  42  28  22  22  28  36  36  32  22  22  22  22  14  14  14  10  14  14  14  14  32  30  20  10   0  10  10  30  30  30  32  14  10  22  32  36  28  28  20  20  20  28  36  36  42  32  32  32  32  36  36  42  
50  42  36  32  32  32  32  36  36  36  20  20  22  28  28  41  32  32  32  32  22  22  22  14  10  10  10  10  22  40  30  20  10   0   0  20  20  20  41  22  14  14  22  45  36  36  22  22  22  22  28  28  50  36  36  30  30  32  32  36  
50  42  36  32  32  32  32  36  36  36  20  20  22  28  28  41  32  32  32  32  22  22  22  14  10  10  10  10  22  40  30  20  10   0   0  20  20  20  41  22  14  14  22  45  36  36  22  22  22  22  28  28  50  36  36  30  30  32  32  36  
67  58  50  42  42  32  32  30  30  54  28  28  22  20  20  61  51  51  51  51  41  41  41  32  22  22  22  22  10  60  50  40  30  20  20   0   0   0  61  41  32  14  10  63  54  54  36  36  36  22  20  20  67  50  50  36  36  32  32  30  
67  58  50  42  42  32  32  30  30  54  28  28  22  20  20  61  51  51  51  51  41  41  41  32  22  22  22  22  10  60  50  40  30  20  20   0   0   0  61  41  32  14  10  63  54  54  36  36  36  22  20  20  67  50  50  36  36  32  32  30  
67  58  50  42  42  32  32  30  30  54  28  28  22  20  20  61  51  51  51  51  41  41  41  32  22  22  22  22  10  60  50  40  30  20  20   0   0   0  61  41  32  14  10  63  54  54  36  36  36  22  20  20  67  50  50  36  36  32  32  30  
40  41  45  50  50  64  64  72  72  32  50  50  58  67  67  20  22  22  22  22  28  28  28  36  45  45  45  45  63  10  14  22  32  41  41  61  61  61   0  20  30  50  60  10  14  14  32  32  32  51  61  61  20  28  28  45  45  54  54  63  
45  41  40  41  41  50  50  57  57  32  36  36  42  50  50  28  22  22  22  22  20  20  20  22  28  28  28  28  45  22  14  10  14  22  22  41  41  41  20   0  10  30  40  22  14  14  14  14  14  32  41  41  28  20  20  28  28  36  36  45  
50  45  41  40  40  45  45  50  50  36  32  32  36  42  42  36  28  28  28  28  22  22  22  20  22  22  22  22  36  32  22  14  10  14  14  32  32  32  30  10   0  20  30  32  22  22  10  10  10  22  32  32  36  22  22  22  22  28  28  36  
64  57  50  45  45  40  40  41  41  50  32  32  30  32  32  54  45  45  45  45  36  36  36  28  22  22  22  22  22  51  41  32  22  14  14  14  14  14  50  30  20   0  10  51  41  41  22  22  22  10  14  14  54  36  36  22  22  20  20  22  
72  64  57  50  50  41  41  40  40  58  36  36  32  30  30  63  54  54  54  54  45  45  45  36  28  28  28  28  20  61  51  41  32  22  22  10  10  10  60  40  30  10   0  61  51  51  32  32  32  14  10  10  63  45  45  28  28  22  22  20  
50  51  54  58  58  71  71  78  78  41  57  57  64  72  72  30  32  32  32  32  36  36  36  42  50  50  50  50  67  20  22  28  36  45  45  63  63  63  10  22  32  51  61   0  10  10  30  30  30  50  60  60  10  22  22  41  41  51  51  61  
51  50  51  54  54  64  64  71  71  40  50  50  57  64  64  32  30  30  30  30  32  32  32  36  42  42  42  42  58  22  20  22  28  36  36  54  54  54  14  14  22  41  51  10   0   0  20  20  20  40  50  50  14  14  14  32  32  41  41  51  
51  50  51  54  54  64  64  71  71  40  50  50  57  64  64  32  30  30  30  30  32  32  32  36  42  42  42  42  58  22  20  22  28  36  36  54  54  54  14  14  22  41  51  10   0   0  20  20  20  40  50  50  14  14  14  32  32  41  41  51  
58  54  51  50  50  54  54  58  58  45  41  41  45  50  50  42  36  36  36  36  32  32  32  30  32  32  32  32  42  36  28  22  20  22  22  36  36  36  32  14  10  22  32  30  20  20   0   0   0  20  30  30  32  14  14  14  14  22  22  32  
58  54  51  50  50  54  54  58  58  45  41  41  45  50  50  42  36  36  36  36  32  32  32  30  32  32  32  32  42  36  28  22  20  22  22  36  36  36  32  14  10  22  32  30  20  20   0   0   0  20  30  30  32  14  14  14  14  22  22  32  
58  54  51  50  50  54  54  58  58  45  41  41  45  50  50  42  36  36  36  36  32  32  32  30  32  32  32  32  42  36  28  22  20  22  22  36  36  36  32  14  10  22  32  30  20  20   0   0   0  20  30  30  32  14  14  14  14  22  22  32  
71  64  58  54  54  50  50  51  51  57  41  41  40  41  41  58  50  50  50  50  42  42  42  36  32  32  32  32  32  54  45  36  28  22  22  22  22  22  51  32  22  10  14  50  40  40  20  20  20   0  10  10  51  32  32  14  14  10  10  14  
78  71  64  58  58  51  51  50  50  64  45  45  41  40  40  67  58  58  58  58  50  50  50  42  36  36  36  36  30  63  54  45  36  28  28  20  20  20  61  41  32  14  10  60  50  50  30  30  30  10   0   0  61  41  41  22  22  14  14  10  
78  71  64  58  58  51  51  50  50  64  45  45  41  40  40  67  58  58  58  58  50  50  50  42  36  36  36  36  30  63  54  45  36  28  28  20  20  20  61  41  32  14  10  60  50  50  30  30  30  10   0   0  61  41  41  22  22  14  14  10  
60  61  63  67  67  78  78  85  85  51  64  64  71  78  78  40  41  41  41  41  45  45  45  50  57  57  57  57  72  30  32  36  42  50  50  67  67  67  20  28  36  54  63  10  14  14  32  32  32  51  61  61   0  20  20  40  40  50  50  60  
63  61  60  61  61  67  67  72  72  51  54  54  58  64  64  45  41  41  41  41  40  40  40  41  45  45  45  45  57  36  32  30  32  36  36  50  50  50  28  20  22  36  45  22  14  14  14  14  14  32  41  41  20   0   0  20  20  30  30  40  
63  61  60  61  61  67  67  72  72  51  54  54  58  64  64  45  41  41  41  41  40  40  40  41  45  45  45  45  57  36  32  30  32  36  36  50  50  50  28  20  22  36  45  22  14  14  14  14  14  32  41  41  20   0   0  20  20  30  30  40  
72  67  63  61  61  61  61  63  63  58  50  50  51  54  54  57  50  50  50  50  45  45  45  41  40  40  40  40  45  50  42  36  32  30  30  36  36  36  45  28  22  22  28  41  32  32  14  14  14  14  22  22  40  20  20   0   0  10  10  20  
72  67  63  61  61  61  61  63  63  58  50  50  51  54  54  57  50  50  50  50  45  45  45  41  40  40  40  40  45  50  42  36  32  30  30  36  36  36  45  28  22  22  28  41  32  32  14  14  14  14  22  22  40  20  20   0   0  10  10  20  
78  72  67  63  63  60  60  61  61  64  51  51  50  51  51  64  57  57  57  57  50  50  50  45  41  41  41  41  41  58  50  42  36  32  32  32  32  32  54  36  28  20  22  51  41  41  22  22  22  10  14  14  50  30  30  10  10   0   0  10  
78  72  67  63  63  60  60  61  61  64  51  51  50  51  51  64  57  57  57  57  50  50  50  45  41  41  41  41  41  58  50  42  36  32  32  32  32  32  54  36  28  20  22  51  41  41  22  22  22  10  14  14  50  30  30  10  10   0   0  10  
85  78  72  67  67  61  61  60  60  71  54  54  51  50  50  72  64  64  64  64  57  57  57  50  45  45  45  45  40  67  58  50  42  36  36  30  30  30  63  45  36  22  20  61  51  51  32  32  32  14  10  10  60  40  40  20  20  10  10   0  

 0  28  31  26  36  34  30  28  31  16  37  28  28  28  36  33  20  20  31  28  17  20  36  36  28  28  26  28  18  30  28  38  22  18  31  22  30  25  40  43  34  28  26  29  20  22  41  28  30  25  23  31  25  11  36  28  34  35  28  25  
 0   0  28  18  31  28  38  28  35  21  28  35  28  27  28  18  28  25  28  18  28  28  36  28  28  28  28  19  17  27  28  28  18  39  28  32  39  21  27  27  28  18  29  21  32  28  28  28  38  28  28  28  37  34  35  38  28  38  29  27  
 0   0   0  30  35  35  13  31  24  35  32  44  29  28  28  20  28  28  21  20  28  28  38  28  11  29  36  27  15  44  22  34  10  35  36  46  27  32  34  23  30  35  28  24  35  28  26  29  38  31  38  15  38  32  28  19  20  31  29  33  
 0   0   0   0  46  26  38  38  28  30  28  16  28  28  28  22  30  18  38  18  26  28  28  20  38  28  26  16   8  20  36  28  20  48  18  46  48  30  30  38  26  16  24  26  44  28  30  28  30  28  26  38  28  28  28  38  20  40  26  38  
 0   0   0   0   0  21  17  20  36  29  21  29  28  28  20  38  36  53  28  38  36  36  26  28  34  27  28  39  51  22  34  22  46  19  27   3  18  20  22  20  34  32  28  22  20  28  19  27  18  28  21  28  18  43  27  19  28  18  28  34  
 0   0   0   0   0   0  27  28  27  30  29  28  28  28  10  38  46  36  18  36  36  36  13  20  28  29   8  27  35  40  36  28  38  17  29  28  38  29  40  10  20  28  16  25  35  28  33  29  30  28  27  28  28  36  30  35  28  28  28  28  
 0   0   0   0   0   0   0  28  27  30  41  26  28  28  20  30  44  54  34  30  36  28  29  20  22  29  36  45  49  42   6  34  46  17  37  12  10  29  34  34  28  44  20  35  25  22  21  29  18  28  43  28  18  30  28   1  34  10  28  30  
 0   0   0   0   0   0   0   0  31  28  31  30  28  28  28  23  26  28  25  28  33  28  28  36  28  28  28  30  28  28  28  28  30  26  31  18  28  23  28  29  30  30  30  31  30  28  31  28  28  25  25  31  31  25  28  28  28  23  30  23  
 0   0   0   0   0   0   0   0   0  41  26  21  28  28  25  28  25  26  31  25  33  28  17  33  34  29  36  24  29  23  28  28  25  33  26  30  36  34  28  28  28  28  25  34  34  28  21  29  25  26  27  22  28  26  27  32  20  36  33  36  
 0   0   0   0   0   0   0   0   0   0  34  27  28  20  39  34  31  43  42  39  20  20  27  36  21  28  19  39  30  34  28  36  21  22  36   7  31  21  26  33  18  29  25  28  13  22  34  28  21  28  46  31  28  25  37  28  37  20  28  36  
 0   0   0   0   0   0   0   0   0   0   0  22  28  28  31  28  31  28  25  31  28  28  27  28  34  27  25  32  27  16  34  22  25  29  24  34  31  30  22  16  28  22  31  29  29  34  24  27  25  31  30  28  28  40  28  29  25  31  28  37  
 0   0   0   0   0   0   0   0   0   0   0   0  28  28  28  30  38  29  38  28  26  20  21  28  44  28  28  34  42  20  26  22  36  30  26  27  28  37  22  40  24  20  18  43  33  28  28  28  18  28  30  38  18  21  29  20  28  22  26  44  
 0   0   0   0   0   0   0   0   0   0   0   0   0  28  28  28  28  28  28  28  28  28  27  28  28  28  28  28  28  28  28  28  28  28  28  28  29  28  28  28  28  28  28  28  28  28  28  28  28  28  28  28  28  28  28  28  28  28  27  28  
 0   0   0   0   0   0   0   0   0   0   0   0   0   0  28  28  28  36  36  22  28  36  21  28  28  28  28  29  27  33  28  36  28  29  28  21  29  28  27  27  28  28  29  28  29  28  28  28  20  28  36  28  27  27  20  28  28  28  29  27  
 0   0   0   0   0   0   0   0   0   0   0   0   0   0   0  28  43  36  18  25  36  36  20  20  31  28  21  25  39  41  28  28  36  21  28  28  28  28  38  23  28  28  15  28  36  28  30  28  28  28  25  25  28  33  33  28  25  28  28  28  
 0   0   0   0   0   0   0   0   0   0   0   0   0   0   0   0  26  18  28  10  33  28  36  28  28  28  38  20  20  26  20  28  18  36  28  36  28  26  26  36  38  20  32  30  40  28  26  28  36  28  30  28  41  28  28  30  28  36  30  26  
 0   0   0   0   0   0   0   0   0   0   0   0   0   0   0   0   0  12  38  25  22  28  36  41  31  28  41  19  15  13  36  28  22  39  20  21  28  26  18  37  38  30  45  15  22  28  26  33  28  28  17  25  28  17  21  36  25  34  30  18  
 0   0   0   0   0   0   0   0   0   0   0   0   0   0   0   0   0   0  20  18  15  20  42  31  28  28  23  10   2  25  36  20  10  38  20  58  33  40  28  36  36  18  36  27  37  28  41  28  46  33  17  28  38   8  29  41  33  41  23  15  
 0   0   0   0   0   0   0   0   0   0   0   0   0   0   0   0   0   0   0  28  28  20  36  28  18  28  18  28  28  48  28  20  18  18  41  52  28  25  38  15  22  28  18  31  28  34  41  28  46  25  17  21  38  31  46  28  22  25  28  25  
 0   0   0   0   0   0   0   0   0   0   0   0   0   0   0   0   0   0   0   0  28  28  36  28  31  28  39  15  21  37  20  28  18  41  28  38  30  28  28  39  36  18  25  28  38  28  28  28  38  28  35  25  48  25  31  30  25  38  28  28  
 0   0   0   0   0   0   0   0   0   0   0   0   0   0   0   0   0   0   0   0   0  20  41  31  28  28  23  26  20  33  23  28  18  30  28  35  23  35  28  38  26  26  26  28  18  28  41  33  28  33  33  28  25  15  36  23  33  25  21  25  
 0   0   0   0   0   0   0   0   0   0   0   0   0   0   0   0   0   0   0   0   0   0  44  36  28  28  28  36  28  36  20  20  20  28  36  36  28  28  28  36  20  28  20  36  20  28  36  28  36  28  28  28  28  20  52  20  28  20  28  36  
 0   0   0   0   0   0   0   0   0   0   0   0   0   0   0   0   0   0   0   0   0   0   0  25  28  27  25  28  36  24  36  36  36  28  27  21  41  29  29  13  20  28  27  36  43  28  14  27  20  23  30  28  29  35   5  42  23  33  31  34  
 0   0   0   0   0   0   0   0   0   0   0   0   0   0   0   0   0   0   0   0   0   0   0   0  28  28  23  28  36  33  28  28  36  28  28  46  23  33  28  20  28  28  28  33  36  28  25  23  28  33  33  28  28  31  20  23  33  23  23  23  
 0   0   0   0   0   0   0   0   0   0   0   0   0   0   0   0   0   0   0   0   0   0   0   0   0  28  32  31  22  44  22  34  21  22  38  38  25  28  34  15  29  28  31  25  28  28  21  35  41  28  27  28  38  32  15  28  31  28  28  22  
 0   0   0   0   0   0   0   0   0   0   0   0   0   0   0   0   0   0   0   0   0   0   0   0   0   0  28  29  27  28  28  28  28  29  27  28  28  27  28  28  28  28  28  29  29  28  27  27  28  28  27  28  28  28  28  29  28  28  28  28  
 0   0   0   0   0   0   0   0   0   0   0   0   0   0   0   0   0   0   0   0   0   0   0   0   0   0   0  31  23  42  36  28  30  15  28  33  33  33  40  15  13  35  19  26  28  28  52  21  30  33  41  24  28  26  42  31  36  23  23  23  
 0   0   0   0   0   0   0   0   0   0   0   0   0   0   0   0   0   0   0   0   0   0   0   0   0   0   0   0  15  24  36  28  16  41  21  39  37  31  29  34  34  16  30  19  34  28  29  29  38  28  18  25  39  26  23  45  25  48  25  23  
 0   0   0   0   0   0   0   0   0   0   0   0   0   0   0   0   0   0   0   0   0   0   0   0   0   0   0   0   0  21  38  34   1  48  19  47  52  27  35  30  30  24  38  22  40  28  37  27  37  28  29  31  37  22  28  47  23  46  29  21  
 0   0   0   0   0   0   0   0   0   0   0   0   0   0   0   0   0   0   0   0   0   0   0   0   0   0   0   0   0   0  42  22  33  39  10  14  35  23   9  36  42  22  52  25  29  28  11  28  13  23  17  41  17  35  10  41  26  41  34  30  
 0   0   0   0   0   0   0   0   0   0   0   0   0   0   0   0   0   0   0   0   0   0   0   0   0   0   0   0   0   0   0  34  36  20  36  20  12  28  34  36  22  34  20  36  20  28  28  33  28  28  42  28  28  28  36  12  36  20  28  22  
 0   0   0   0   0   0   0   0   0   0   0   0   0   0   0   0   0   0   0   0   0   0   0   0   0   0   0   0   0   0   0   0  28  38  28  36  28  28  12  28  34  22  28  28  28  28  28  28  36  28  14  28  28  28  36  28  28  18  28  34  
 0   0   0   0   0   0   0   0   0   0   0   0   0   0   0   0   0   0   0   0   0   0   0   0   0   0   0   0   0   0   0   0   0  51  38  58  47  30  26  30  26  16  28  33  36  28  34  28  43  28  33  18  48  20  39  38  20  40  26  38  
 0   0   0   0   0   0   0   0   0   0   0   0   0   0   0   0   0   0   0   0   0   0   0   0   0   0   0   0   0   0   0   0   0   0  29   7   6  27  49  24  30  40  22  24  10  28  39  29  21  28  29  31  19  32  32  17  39  26  29  19  
 0   0   0   0   0   0   0   0   0   0   0   0   0   0   0   0   0   0   0   0   0   0   0   0   0   0   0   0   0   0   0   0   0   0   0  18  28  30  28  35  36  28  36  18  29  28  24  27  18  31  22  35  18  31  20  37  28  39  28  23  
 0   0   0   0   0   0   0   0   0   0   0   0   0   0   0   0   0   0   0   0   0   0   0   0   0   0   0   0   0   0   0   0   0   0   0   0  14  14  29  43  36  40  29  16   4  22  23  33   0  23  31  38   9  35  27  23  37  21  34  24  
 0   0   0   0   0   0   0   0   0   0   0   0   0   0   0   0   0   0   0   0   0   0   0   0   0   0   0   0   0   0   0   0   0   0   0   0   0  33  27  39  36  38  29  27   9  28  31  28  19  33  32  28  19  24  25   5  41  13  23  16  
 0   0   0   0   0   0   0   0   0   0   0   0   0   0   0   0   0   0   0   0   0   0   0   0   0   0   0   0   0   0   0   0   0   0   0   0   0   0  28  29  30  30  30  25  24  28  25  27  28  20  19  31  28  37  35  34  23  28  35  28  
 0   0   0   0   0   0   0   0   0   0   0   0   0   0   0   0   0   0   0   0   0   0   0   0   0   0   0   0   0   0   0   0   0   0   0   0   0   0   0  29  34  22  41  30  29  28  16  28  26  28  24  28  27  27  18  28  28  18  29  33  
 0   0   0   0   0   0   0   0   0   0   0   0   0   0   0   0   0   0   0   0   0   0   0   0   0   0   0   0   0   0   0   0   0   0   0   0   0   0   0   0  16  30  32  23  39  34  19  28  40  31  32  18  37  47  17  36  25  29  31  28  
 0   0   0   0   0   0   0   0   0   0   0   0   0   0   0   0   0   0   0   0   0   0   0   0   0   0   0   0   0   0   0   0   0   0   0   0   0   0   0   0   0  39  18  36  26  34  35  21  28  28  49  21  28  34  43  28  22  22  26  32  
 0   0   0   0   0   0   0   0   0   0   0   0   0   0   0   0   0   0   0   0   0   0   0   0   0   0   0   0   0   0   0   0   0   0   0   0   0   0   0   0   0   0  26  28  36  28  21  35  38  28  15  35  38  27  21  38  28  40  26  36  
 0   0   0   0   0   0   0   0   0   0   0   0   0   0   0   0   0   0   0   0   0   0   0   0   0   0   0   0   0   0   0   0   0   0   0   0   0   0   0   0   0   0   0  34  25  28  40  28  30  28  31  25  29  26  49  20  25  22  25  39  
 0   0   0   0   0   0   0   0   0   0   0   0   0   0   0   0   0   0   0   0   0   0   0   0   0   0   0   0   0   0   0   0   0   0   0   0   0   0   0   0   0   0   0   0  20  28  28  34  33  31  19  25  28  38  24  35  28  39  25  26  
 0   0   0   0   0   0   0   0   0   0   0   0   0   0   0   0   0   0   0   0   0   0   0   0   0   0   0   0   0   0   0   0   0   0   0   0   0   0   0   0   0   0   0   0   0  28  37  29  18  28  29  28  19  28  43  17  36  20  25  23  
 0   0   0   0   0   0   0   0   0   0   0   0   0   0   0   0   0   0   0   0   0   0   0   0   0   0   0   0   0   0   0   0   0   0   0   0   0   0   0   0   0   0   0   0   0   0  28  28  28  28  28  28  28  22  28  28  34  28  28  28  
 0   0   0   0   0   0   0   0   0   0   0   0   0   0   0   0   0   0   0   0   0   0   0   0   0   0   0   0   0   0   0   0   0   0   0   0   0   0   0   0   0   0   0   0   0   0   0  34  26  26  20  32  28  44   3  34  23  36  33  36  
 0   0   0   0   0   0   0   0   0   0   0   0   0   0   0   0   0   0   0   0   0   0   0   0   0   0   0   0   0   0   0   0   0   0   0   0   0   0   0   0   0   0   0   0   0   0   0   0  28  28  34  21  28  28  35  29  28  28  28  28  
 0   0   0   0   0   0   0   0   0   0   0   0   0   0   0   0   0   0   0   0   0   0   0   0   0   0   0   0   0   0   0   0   0   0   0   0   0   0   0   0   0   0   0   0   0   0   0   0   0  28  41  38   8  28  23  18  28  18  28  28  
 0   0   0   0   0   0   0   0   0   0   0   0   0   0   0   0   0   0   0   0   0   0   0   0   0   0   0   0   0   0   0   0   0   0   0   0   0   0   0   0   0   0   0   0   0   0   0   0   0   0  20  31  28  30  28  33  23  30  33  30  
 0   0   0   0   0   0   0   0   0   0   0   0   0   0   0   0   0   0   0   0   0   0   0   0   0   0   0   0   0   0   0   0   0   0   0   0   0   0   0   0   0   0   0   0   0   0   0   0   0   0   0  35  18  27  21  42  20  38  33  28  
 0   0   0   0   0   0   0   0   0   0   0   0   0   0   0   0   0   0   0   0   0   0   0   0   0   0   0   0   0   0   0   0   0   0   0   0   0   0   0   0   0   0   0   0   0   0   0   0   0   0   0   0  38  28  38  28  25  31  28  31  
 0   0   0   0   0   0   0   0   0   0   0   0   0   0   0   0   0   0   0   0   0   0   0   0   0   0   0   0   0   0   0   0   0   0   0   0   0   0   0   0   0   0   0   0   0   0   0   0   0   0   0   0   0  27  28  18  28  18  29  27  
 0   0   0   0   0   0   0   0   0   0   0   0   0   0   0   0   0   0   0   0   0   0   0   0   0   0   0   0   0   0   0   0   0   0   0   0   0   0   0   0   0   0   0   0   0   0   0   0   0   0   0   0   0   0  32  23  36  20  24  19  
 0   0   0   0   0   0   0   0   0   0   0   0   0   0   0   0   0   0   0   0   0   0   0   0   0   0   0   0   0   0   0   0   0   0   0   0   0   0   0   0   0   0   0   0   0   0   0   0   0   0   0   0   0   0   0  36  31  36  28  20  
 0   0   0   0   0   0   0   0   0   0   0   0   0   0   0   0   0   0   0   0   0   0   0   0   0   0   0   0   0   0   0   0   0   0   0   0   0   0   0   0   0   0   0   0   0   0   0   0   0   0   0   0   0   0   0   0  33   5  23  31  
 0   0   0   0   0   0   0   0   0   0   0   0   0   0   0   0   0   0   0   0   0   0   0   0   0   0   0   0   0   0   0   0   0   0   0   0   0   0   0   0   0   0   0   0   0   0   0   0   0   0   0   0   0   0   0   0   0  33  33  41  
 0   0   0   0   0   0   0   0   0   0   0   0   0   0   0   0   0   0   0   0   0   0   0   0   0   0   0   0   0   0   0   0   0   0   0   0   0   0   0   0   0   0   0   0   0   0   0   0   0   0   0   0   0   0   0   0   0   0  25  26  
 0   0   0   0   0   0   0   0   0   0   0   0   0   0   0   0   0   0   0   0   0   0   0   0   0   0   0   0   0   0   0   0   0   0   0   0   0   0   0   0   0   0   0   0   0   0   0   0   0   0   0   0   0   0   0   0   0   0   0  29  
 0   0   0   0   0   0   0   0   0   0   0   0   0   0   0   0   0   0   0   0   0   0   0   0   0   0   0   0   0   0   0   0   0   0   0   0   0   0   0   0   0   0   0   0   0   0   0   0   0   0   0   0   0   0   0   0   0   0   0   0  
